Problem:    state
Rows:       6
Columns:    4
Non-zeros:  18
Status:     OPTIMAL
Objective:  value = 1 (MINimum)

   No.   Row name   St   Activity     Lower bound   Upper bound    Marginal
------ ------------ -- ------------- ------------- ------------- -------------
     1 value        B              1                             
     2 final        NS             1             1             =             1 
     3 aa           NS             0            -0             =         < eps
     4 bb           NS             0            -0             =         < eps
     5 cc           NS             0            -0             =         < eps
     6 dd           B              0            -0             = 

   No. Column name  St   Activity     Lower bound   Upper bound    Marginal
------ ------------ -- ------------- ------------- ------------- -------------
     1 A            B      0.0689655             0             1 
     2 B            B       0.206897             0             1 
     3 C            B       0.413793             0             1 
     4 D            B       0.310345             0             1 

Karush-Kuhn-Tucker optimality conditions:

KKT.PE: max.abs.err = 0.00e+00 on row 0
        max.rel.err = 0.00e+00 on row 0
        High quality

KKT.PB: max.abs.err = 0.00e+00 on row 0
        max.rel.err = 0.00e+00 on row 0
        High quality

KKT.DE: max.abs.err = 0.00e+00 on column 0
        max.rel.err = 0.00e+00 on column 0
        High quality

KKT.DB: max.abs.err = 0.00e+00 on row 0
        max.rel.err = 0.00e+00 on row 0
        High quality

End of output
